(set-logic QF_SLIA)
(set-option :produce-models true)
(declare-const X String)
; [a-zA-Z0-9_\\-]+@([a-zA-Z0-9_\\-]+\\.)+(com)
(assert (str.in_re X (re.++ (re.+ (re.union (re.range "a" "z") (re.range "A" "Z") (re.range "0" "9") (str.to_re "_") (str.to_re "\u{5c}") (str.to_re "-"))) (str.to_re "@") (re.+ (re.++ (re.+ (re.union (re.range "a" "z") (re.range "A" "Z") (re.range "0" "9") (str.to_re "_") (str.to_re "\u{5c}") (str.to_re "-"))) (str.to_re "\u{5c}") re.allchar)) (str.to_re "com\u{0a}"))))
; ^\+[0-9]{1,3}\([0-9]{3}\)[0-9]{7}$
(assert (str.in_re X (re.++ (str.to_re "+") ((_ re.loop 1 3) (re.range "0" "9")) (str.to_re "(") ((_ re.loop 3 3) (re.range "0" "9")) (str.to_re ")") ((_ re.loop 7 7) (re.range "0" "9")) (str.to_re "\u{0a}"))))
; ^[^ ,0]*$
(assert (str.in_re X (re.++ (re.* (re.union (str.to_re " ") (str.to_re ",") (str.to_re "0"))) (str.to_re "\u{0a}"))))
; <body[\d\sa-z\W\S\s]*>
(assert (str.in_re X (re.++ (str.to_re "<body") (re.* (re.union (re.range "0" "9") (re.range "a" "z") (re.comp (re.union (re.range "0" "9") (re.range "A" "Z") (re.range "a" "z") (str.to_re "_"))) (re.comp (re.union (str.to_re " ") (str.to_re "\u{09}") (str.to_re "\u{0a}") (str.to_re "\u{0c}") (str.to_re "\u{0d}"))) (str.to_re " ") (str.to_re "\u{09}") (str.to_re "\u{0a}") (str.to_re "\u{0c}") (str.to_re "\u{0d}"))) (str.to_re ">\u{0a}"))))
; User-Agent\x3A[^\n\r]*HTTP_RAT_
(assert (not (str.in_re X (re.++ (str.to_re "User-Agent:") (re.* (re.union (str.to_re "\u{0a}") (str.to_re "\u{0d}"))) (str.to_re "HTTP_RAT_\u{0a}")))))
(assert (> (str.len X) 10))
(check-sat)
